HUN,8,6,435
2,18,1,19,4,25,5,7,3,22,0,15
2,22,5,23,4,3,0,29,3,2,1,19
3,25,1,18,5,7,4,28,0,20,2,11
2,29,1,26,5,12,0,22,4,7,3,1
4,12,1,29,0,16,5,16,2,1,3,24
4,11,1,15,5,1,2,29,3,2,0,26
3,15,4,11,1,16,5,9,2,18,0,23
0,23,5,6,1,20,4,3,3,3,2,26
